\ Model vert
\ LP format - for model browsing. Use MPS format to capture full model detail.
\ Signature: 0xc60ddf5a1d6698dd
Minimize
  155841.4103171103 S_coef + 697.6653345738335 Constant + [
   1.7405584e+07 S_coef ^2 ] / 2 
Subject To
Bounds
 -1000 <= S_coef <= 0
 Constant = 1
End
